c An unsatisfiable formula with 20 variables and 20 clauses
p cnf 20 20
1 0
-1 0
2 3 0
-2 3 0
2 -3 0
-2 -3 0
4 5 6 0
-4 5 6 0
4 -5 6 0
4 5 -6 0
7 8 9 0
-7 -8 -9 0
10 11 12 0
-10 -11 -12 0
13 14 15 0
-13 -14 -15 0
16 17 18 0
-16 -17 -18 0
19 20 0
-19 -20 0